!B3LYP def2-SVPD TIGHTSCF D3 Freq

{%for block in additional_blocks%}
{{ block }}
{%endfor%}

%pal
nproc {{ nproc }}
end

%scf
AutoTRAH  
     true
AutoTRAHTol    1.125
AutoTRAHIter   500
AutoTRAHNInter 10
end

* xyzfile {{ charge }} {{ multiplicity }} {{ xyzfile }}
{{ NEWLINE }}